p cnf 5 16
0001 0002 0
0001 -0002 0
-0001 0002 0
-0001 -0002 0
0001 0003 0
0001 -0003 0
-0001 0003 0
-0001 -0003 0
0001 0004 0
0001 -0004 0
-0001 0004 0
-0001 -0004 0
0001 0005 0
0001 -0005 0
-0001 0005 0
-0001 -0005 0
